(set-logic QF_ALL)
(set-option :produce-models true)
(declare-fun USERS () (Set (Tuple Int Int)))
(assert (= USERS (set.insert (tuple 11 11) 
(tuple 17 17) 
(tuple 2 2) 
(tuple 22 22) 
(tuple 15 15) 
(tuple 8 8) 
(tuple 6 6) 
(set.singleton (tuple 13 13)))))
(declare-fun ASSIGN* (Int) (Set (Tuple Int Int)))
(assert (= (ASSIGN* 0) (set.insert (tuple 10 10) 
(tuple 11 1) 
(tuple 9 10) 
(tuple 17 17) 
(tuple 3 20) 
(tuple 11 10) 
(tuple 24 24) 
(tuple 6 9) 
(tuple 19 10) 
(tuple 12 12) 
(tuple 6 14) 
(tuple 17 18) 
(tuple 20 10) 
(tuple 18 10) 
(tuple 13 4) 
(tuple 16 10) 
(tuple 2 19) 
(tuple 5 10) 
(tuple 18 18) 
(tuple 22 10) 
(tuple 15 19) 
(tuple 22 22) 
(tuple 21 10) 
(tuple 15 15) 
(tuple 6 21) 
(tuple 17 10) 
(tuple 3 3) 
(tuple 4 10) 
(tuple 4 4) 
(tuple 6 23) 
(tuple 1 1) 
(tuple 2 2) 
(tuple 23 10) 
(tuple 14 10) 
(tuple 14 14) 
(tuple 3 10) 
(tuple 24 10) 
(tuple 21 21) 
(tuple 6 10) 
(tuple 15 10) 
(tuple 13 13) 
(tuple 2 10) 
(tuple 6 7) 
(tuple 12 10) 
(tuple 19 19) 
(tuple 23 23) 
(tuple 6 12) 
(tuple 16 16) 
(tuple 7 10) 
(tuple 20 20) 
(tuple 1 10) 
(tuple 5 24) 
(tuple 9 9) 
(tuple 11 11) 
(tuple 8 10) 
(tuple 22 20) 
(tuple 8 4) 
(tuple 13 10) 
(tuple 5 5) 
(tuple 8 8) 
(tuple 6 6) 
(set.singleton (tuple 7 7)))))
(declare-fun ASSIGN (Int) (Set (Tuple Int Int)))
(assert (= (ASSIGN 0) (set.insert (tuple 11 1) 
(tuple 9 10) 
(tuple 17 17) 
(tuple 3 20) 
(tuple 24 24) 
(tuple 6 9) 
(tuple 19 10) 
(tuple 12 12) 
(tuple 6 14) 
(tuple 17 18) 
(tuple 20 10) 
(tuple 18 10) 
(tuple 16 10) 
(tuple 13 4) 
(tuple 2 19) 
(tuple 18 18) 
(tuple 15 19) 
(tuple 22 22) 
(tuple 21 10) 
(tuple 15 15) 
(tuple 6 21) 
(tuple 4 10) 
(tuple 3 3) 
(tuple 4 4) 
(tuple 6 23) 
(tuple 1 1) 
(tuple 2 2) 
(tuple 23 10) 
(tuple 14 10) 
(tuple 14 14) 
(tuple 24 10) 
(tuple 21 21) 
(tuple 13 13) 
(tuple 6 7) 
(tuple 12 10) 
(tuple 6 12) 
(tuple 19 19) 
(tuple 23 23) 
(tuple 16 16) 
(tuple 7 10) 
(tuple 20 20) 
(tuple 1 10) 
(tuple 5 24) 
(tuple 11 11) 
(tuple 9 9) 
(tuple 22 20) 
(tuple 8 4) 
(tuple 5 5) 
(tuple 8 8) 
(tuple 6 6) 
(set.singleton (tuple 7 7)))))
(declare-fun ASSOC (Int) (Set (Tuple Int Int Int)))

(assert (= (ASSOC 0) (set.insert(tuple 23 25 24) 
(tuple 23 25 24) 
(tuple 23 25 24) 
(set.singleton (tuple 23 25 24)))))

(declare-fun NODES () (Set (Tuple Int Int)))
(assert (= NODES (set.insert (tuple 1 1) 
(tuple 2 2) 
(tuple 3 3) 
(tuple 4 4) 
(tuple 5 5) 
(tuple 6 6) 
(tuple 7 7) 
(tuple 8 8) 
(tuple 9 9) 
(tuple 10 10) 
(tuple 11 11) 
(tuple 12 12) 
(tuple 13 13) 
(tuple 14 14) 
(tuple 15 15) 
(tuple 16 16) 
(tuple 17 17) 
(tuple 18 18) 
(tuple 19 19) 
(tuple 20 20) 
(tuple 21 21) 
(tuple 22 22) 
(tuple 23 23) 
(set.singleton (tuple 24 24))))) 


(declare-fun obligation7 (Int) Bool)
(declare-fun obligation6 (Int) Bool)
(declare-fun obligation9 (Int) Bool)
(declare-fun obligation3 (Int) Bool)
(declare-fun obligation2 (Int) Bool)
(declare-fun obligation5 (Int) Bool)
(declare-fun obligation4 (Int) Bool)
(declare-fun obligation12 (Int) Bool)
(declare-fun obligation11 (Int) Bool)
(declare-fun obligation1 (Int) Bool)
(declare-fun obligation10 (Int) Bool)
(declare-fun obligation0 (Int) Bool)
(declare-fun queryCONSTPERMITUA_LeadAttorneys_approve_AcceptedCases_0 () Int)
(declare-fun queryCONSTPERMITAT_LeadAttorneys_approve_AcceptedCases_0 () Int)
(assert 
(and(set.member (tuple  -1  queryCONSTPERMITUA_LeadAttorneys_approve_AcceptedCases_0 ) (ASSIGN* 0))(set.member (tuple  queryCONSTPERMITUA_LeadAttorneys_approve_AcceptedCases_0 31  queryCONSTPERMITAT_LeadAttorneys_approve_AcceptedCases_0 ) (ASSOC 0))(set.member (tuple  -1  queryCONSTPERMITAT_LeadAttorneys_approve_AcceptedCases_0 ) (ASSIGN* 0)))
)
(check-sat)
(get-value (obligation7))
(get-value (obligation6))
(get-value (obligation9))
(get-value (obligation3))
(get-value (obligation2))
(get-value (obligation5))
(get-value (obligation4))
(get-value (obligation12))
(get-value (obligation11))
(get-value (obligation1))
(get-value (obligation10))
(get-value (obligation0))
(get-value (obligation0U_0))
(get-value (obligation0UA_0))
(get-value (obligation0AT_0))
(get-value (obligation0UO_0))
(get-value (obligation0S_0))
(get-value (obligation0T_0))
(get-value (obligation0ar_0))
(get-value (obligation1U_0))
(get-value (obligation1UA_0))
(get-value (obligation1AT_0))
(get-value (obligation1UO_0))
(get-value (obligation1S_0))
(get-value (obligation1T_0))
(get-value (obligation1ar_0))
(get-value (obligation2U_0))
(get-value (obligation2UA_0))
(get-value (obligation2AT_0))
(get-value (obligation2UO_0))
(get-value (obligation2S_0))
(get-value (obligation2T_0))
(get-value (obligation2ar_0))
(get-value (obligation3U_0))
(get-value (obligation3UA_0))
(get-value (obligation3AT_0))
(get-value (obligation3UO_0))
(get-value (obligation3S_0))
(get-value (obligation3T_0))
(get-value (obligation3ar_0))
(get-value (obligation4U_0))
(get-value (obligation4UA_0))
(get-value (obligation4AT_0))
(get-value (obligation4UO_0))
(get-value (obligation4S_0))
(get-value (obligation4T_0))
(get-value (obligation4ar_0))
(get-value (obligation5U_0))
(get-value (obligation5UA_0))
(get-value (obligation5AT_0))
(get-value (obligation5UO_0))
(get-value (obligation5S_0))
(get-value (obligation5T_0))
(get-value (obligation5ar_0))
(get-value (obligation6U_0))
(get-value (obligation6UA_0))
(get-value (obligation6AT_0))
(get-value (obligation6UO_0))
(get-value (obligation6S_0))
(get-value (obligation6T_0))
(get-value (obligation6ar_0))
(get-value (obligation7U_0))
(get-value (obligation7UA_0))
(get-value (obligation7AT_0))
(get-value (obligation7UO_0))
(get-value (obligation7S_0))
(get-value (obligation7T_0))
(get-value (obligation7ar_0))
(get-value (obligation9U_0))
(get-value (obligation9UA_0))
(get-value (obligation9AT_0))
(get-value (obligation9UO_0))
(get-value (obligation9S_0))
(get-value (obligation9T_0))
(get-value (obligation9ar_0))
(get-value (obligation10U_0))
(get-value (obligation10UA_0))
(get-value (obligation10AT_0))
(get-value (obligation10UO_0))
(get-value (obligation10S_0))
(get-value (obligation10T_0))
(get-value (obligation10ar_0))
(get-value (obligation11U_0))
(get-value (obligation11UA_0))
(get-value (obligation11AT_0))
(get-value (obligation11UO_0))
(get-value (obligation11S_0))
(get-value (obligation11T_0))
(get-value (obligation11ar_0))
(get-value (obligation12U_0))
(get-value (obligation12UA_0))
(get-value (obligation12AT_0))
(get-value (obligation12UO_0))
(get-value (obligation12S_0))
(get-value (obligation12T_0))
(get-value (obligation12ar_0))
(get-value (obligation0U_0))
(get-value (obligation0UA_0))
(get-value (obligation0AT_0))
(get-value (obligation0UO_0))
(get-value (obligation0S_0))
(get-value (obligation0T_0))
(get-value (obligation0ar_0))
(get-value (obligation1U_0))
(get-value (obligation1UA_0))
(get-value (obligation1AT_0))
(get-value (obligation1UO_0))
(get-value (obligation1S_0))
(get-value (obligation1T_0))
(get-value (obligation1ar_0))
(get-value (obligation2U_0))
(get-value (obligation2UA_0))
(get-value (obligation2AT_0))
(get-value (obligation2UO_0))
(get-value (obligation2S_0))
(get-value (obligation2T_0))
(get-value (obligation2ar_0))
(get-value (obligation3U_0))
(get-value (obligation3UA_0))
(get-value (obligation3AT_0))
(get-value (obligation3UO_0))
(get-value (obligation3S_0))
(get-value (obligation3T_0))
(get-value (obligation3ar_0))
(get-value (obligation4U_0))
(get-value (obligation4UA_0))
(get-value (obligation4AT_0))
(get-value (obligation4UO_0))
(get-value (obligation4S_0))
(get-value (obligation4T_0))
(get-value (obligation4ar_0))
(get-value (obligation5U_0))
(get-value (obligation5UA_0))
(get-value (obligation5AT_0))
(get-value (obligation5UO_0))
(get-value (obligation5S_0))
(get-value (obligation5T_0))
(get-value (obligation5ar_0))
(get-value (obligation6U_0))
(get-value (obligation6UA_0))
(get-value (obligation6AT_0))
(get-value (obligation6UO_0))
(get-value (obligation6S_0))
(get-value (obligation6T_0))
(get-value (obligation6ar_0))
(get-value (obligation7U_0))
(get-value (obligation7UA_0))
(get-value (obligation7AT_0))
(get-value (obligation7UO_0))
(get-value (obligation7S_0))
(get-value (obligation7T_0))
(get-value (obligation7ar_0))
(get-value (obligation9U_0))
(get-value (obligation9UA_0))
(get-value (obligation9AT_0))
(get-value (obligation9UO_0))
(get-value (obligation9S_0))
(get-value (obligation9T_0))
(get-value (obligation9ar_0))
(get-value (obligation10U_0))
(get-value (obligation10UA_0))
(get-value (obligation10AT_0))
(get-value (obligation10UO_0))
(get-value (obligation10S_0))
(get-value (obligation10T_0))
(get-value (obligation10ar_0))
(get-value (obligation11U_0))
(get-value (obligation11UA_0))
(get-value (obligation11AT_0))
(get-value (obligation11UO_0))
(get-value (obligation11S_0))
(get-value (obligation11T_0))
(get-value (obligation11ar_0))
(get-value (obligation12U_0))
(get-value (obligation12UA_0))
(get-value (obligation12AT_0))
(get-value (obligation12UO_0))
(get-value (obligation12S_0))
(get-value (obligation12T_0))
(get-value (obligation12ar_0))
(get-value (obligation0U_1))
(get-value (obligation0UA_1))
(get-value (obligation0AT_1))
(get-value (obligation0UO_1))
(get-value (obligation0S_1))
(get-value (obligation0T_1))
(get-value (obligation0ar_1))
(get-value (obligation1U_1))
(get-value (obligation1UA_1))
(get-value (obligation1AT_1))
(get-value (obligation1UO_1))
(get-value (obligation1S_1))
(get-value (obligation1T_1))
(get-value (obligation1ar_1))
(get-value (obligation2U_1))
(get-value (obligation2UA_1))
(get-value (obligation2AT_1))
(get-value (obligation2UO_1))
(get-value (obligation2S_1))
(get-value (obligation2T_1))
(get-value (obligation2ar_1))
(get-value (obligation3U_1))
(get-value (obligation3UA_1))
(get-value (obligation3AT_1))
(get-value (obligation3UO_1))
(get-value (obligation3S_1))
(get-value (obligation3T_1))
(get-value (obligation3ar_1))
(get-value (obligation4U_1))
(get-value (obligation4UA_1))
(get-value (obligation4AT_1))
(get-value (obligation4UO_1))
(get-value (obligation4S_1))
(get-value (obligation4T_1))
(get-value (obligation4ar_1))
(get-value (obligation5U_1))
(get-value (obligation5UA_1))
(get-value (obligation5AT_1))
(get-value (obligation5UO_1))
(get-value (obligation5S_1))
(get-value (obligation5T_1))
(get-value (obligation5ar_1))
(get-value (obligation6U_1))
(get-value (obligation6UA_1))
(get-value (obligation6AT_1))
(get-value (obligation6UO_1))
(get-value (obligation6S_1))
(get-value (obligation6T_1))
(get-value (obligation6ar_1))
(get-value (obligation7U_1))
(get-value (obligation7UA_1))
(get-value (obligation7AT_1))
(get-value (obligation7UO_1))
(get-value (obligation7S_1))
(get-value (obligation7T_1))
(get-value (obligation7ar_1))
(get-value (obligation9U_1))
(get-value (obligation9UA_1))
(get-value (obligation9AT_1))
(get-value (obligation9UO_1))
(get-value (obligation9S_1))
(get-value (obligation9T_1))
(get-value (obligation9ar_1))
(get-value (obligation10U_1))
(get-value (obligation10UA_1))
(get-value (obligation10AT_1))
(get-value (obligation10UO_1))
(get-value (obligation10S_1))
(get-value (obligation10T_1))
(get-value (obligation10ar_1))
(get-value (obligation11U_1))
(get-value (obligation11UA_1))
(get-value (obligation11AT_1))
(get-value (obligation11UO_1))
(get-value (obligation11S_1))
(get-value (obligation11T_1))
(get-value (obligation11ar_1))
(get-value (obligation12U_1))
(get-value (obligation12UA_1))
(get-value (obligation12AT_1))
(get-value (obligation12UO_1))
(get-value (obligation12S_1))
(get-value (obligation12T_1))
(get-value (obligation12ar_1))
(get-value (obligation0U_0))
(get-value (obligation0UA_0))
(get-value (obligation0AT_0))
(get-value (obligation0UO_0))
(get-value (obligation0S_0))
(get-value (obligation0T_0))
(get-value (obligation0ar_0))
(get-value (obligation1U_0))
(get-value (obligation1UA_0))
(get-value (obligation1AT_0))
(get-value (obligation1UO_0))
(get-value (obligation1S_0))
(get-value (obligation1T_0))
(get-value (obligation1ar_0))
(get-value (obligation2U_0))
(get-value (obligation2UA_0))
(get-value (obligation2AT_0))
(get-value (obligation2UO_0))
(get-value (obligation2S_0))
(get-value (obligation2T_0))
(get-value (obligation2ar_0))
(get-value (obligation3U_0))
(get-value (obligation3UA_0))
(get-value (obligation3AT_0))
(get-value (obligation3UO_0))
(get-value (obligation3S_0))
(get-value (obligation3T_0))
(get-value (obligation3ar_0))
(get-value (obligation4U_0))
(get-value (obligation4UA_0))
(get-value (obligation4AT_0))
(get-value (obligation4UO_0))
(get-value (obligation4S_0))
(get-value (obligation4T_0))
(get-value (obligation4ar_0))
(get-value (obligation5U_0))
(get-value (obligation5UA_0))
(get-value (obligation5AT_0))
(get-value (obligation5UO_0))
(get-value (obligation5S_0))
(get-value (obligation5T_0))
(get-value (obligation5ar_0))
(get-value (obligation6U_0))
(get-value (obligation6UA_0))
(get-value (obligation6AT_0))
(get-value (obligation6UO_0))
(get-value (obligation6S_0))
(get-value (obligation6T_0))
(get-value (obligation6ar_0))
(get-value (obligation7U_0))
(get-value (obligation7UA_0))
(get-value (obligation7AT_0))
(get-value (obligation7UO_0))
(get-value (obligation7S_0))
(get-value (obligation7T_0))
(get-value (obligation7ar_0))
(get-value (obligation9U_0))
(get-value (obligation9UA_0))
(get-value (obligation9AT_0))
(get-value (obligation9UO_0))
(get-value (obligation9S_0))
(get-value (obligation9T_0))
(get-value (obligation9ar_0))
(get-value (obligation10U_0))
(get-value (obligation10UA_0))
(get-value (obligation10AT_0))
(get-value (obligation10UO_0))
(get-value (obligation10S_0))
(get-value (obligation10T_0))
(get-value (obligation10ar_0))
(get-value (obligation11U_0))
(get-value (obligation11UA_0))
(get-value (obligation11AT_0))
(get-value (obligation11UO_0))
(get-value (obligation11S_0))
(get-value (obligation11T_0))
(get-value (obligation11ar_0))
(get-value (obligation12U_0))
(get-value (obligation12UA_0))
(get-value (obligation12AT_0))
(get-value (obligation12UO_0))
(get-value (obligation12S_0))
(get-value (obligation12T_0))
(get-value (obligation12ar_0))
(get-value (obligation0U_1))
(get-value (obligation0UA_1))
(get-value (obligation0AT_1))
(get-value (obligation0UO_1))
(get-value (obligation0S_1))
(get-value (obligation0T_1))
(get-value (obligation0ar_1))
(get-value (obligation1U_1))
(get-value (obligation1UA_1))
(get-value (obligation1AT_1))
(get-value (obligation1UO_1))
(get-value (obligation1S_1))
(get-value (obligation1T_1))
(get-value (obligation1ar_1))
(get-value (obligation2U_1))
(get-value (obligation2UA_1))
(get-value (obligation2AT_1))
(get-value (obligation2UO_1))
(get-value (obligation2S_1))
(get-value (obligation2T_1))
(get-value (obligation2ar_1))
(get-value (obligation3U_1))
(get-value (obligation3UA_1))
(get-value (obligation3AT_1))
(get-value (obligation3UO_1))
(get-value (obligation3S_1))
(get-value (obligation3T_1))
(get-value (obligation3ar_1))
(get-value (obligation4U_1))
(get-value (obligation4UA_1))
(get-value (obligation4AT_1))
(get-value (obligation4UO_1))
(get-value (obligation4S_1))
(get-value (obligation4T_1))
(get-value (obligation4ar_1))
(get-value (obligation5U_1))
(get-value (obligation5UA_1))
(get-value (obligation5AT_1))
(get-value (obligation5UO_1))
(get-value (obligation5S_1))
(get-value (obligation5T_1))
(get-value (obligation5ar_1))
(get-value (obligation6U_1))
(get-value (obligation6UA_1))
(get-value (obligation6AT_1))
(get-value (obligation6UO_1))
(get-value (obligation6S_1))
(get-value (obligation6T_1))
(get-value (obligation6ar_1))
(get-value (obligation7U_1))
(get-value (obligation7UA_1))
(get-value (obligation7AT_1))
(get-value (obligation7UO_1))
(get-value (obligation7S_1))
(get-value (obligation7T_1))
(get-value (obligation7ar_1))
(get-value (obligation9U_1))
(get-value (obligation9UA_1))
(get-value (obligation9AT_1))
(get-value (obligation9UO_1))
(get-value (obligation9S_1))
(get-value (obligation9T_1))
(get-value (obligation9ar_1))
(get-value (obligation10U_1))
(get-value (obligation10UA_1))
(get-value (obligation10AT_1))
(get-value (obligation10UO_1))
(get-value (obligation10S_1))
(get-value (obligation10T_1))
(get-value (obligation10ar_1))
(get-value (obligation11U_1))
(get-value (obligation11UA_1))
(get-value (obligation11AT_1))
(get-value (obligation11UO_1))
(get-value (obligation11S_1))
(get-value (obligation11T_1))
(get-value (obligation11ar_1))
(get-value (obligation12U_1))
(get-value (obligation12UA_1))
(get-value (obligation12AT_1))
(get-value (obligation12UO_1))
(get-value (obligation12S_1))
(get-value (obligation12T_1))
(get-value (obligation12ar_1))
(get-value ((ASSIGN 0)))
(get-value ((ASSOC 0)))
